set VV := 0 1 2 3 4 5 6 7 8 9 10 11 12 13 14 15 16 17 18 19 20 21 22 23 24 25 ;
set VS := 0 1 2 3 4 5 6 7 8 9 10 11 12 13 14 15 16 17 18 19 20 21 22 23 24 25 26 27 28 29 30 31 32 33 34 35 36 37 38 39 40 41 42 43 44 45 46 47 48 49 50 51 52 53 54 55 56 ;
param cv := 
0 20
1 21
2 14
3 18
4 25
5 18
6 22
7 18
8 25
9 22
10 15
11 20
12 22
13 10
14 16
15 17
16 10
17 15
18 19
19 15
20 15
21 13
22 21
23 21
24 18
25 20
;
param cs := 
0 30
1 20
2 36
3 21
4 22
5 20
6 29
7 37
8 26
9 30
10 28
11 25
12 21
13 23
14 35
15 32
16 25
17 23
18 29
19 27
20 31
21 35
22 39
23 36
24 36
25 31
26 40
27 27
28 28
29 24
30 20
31 22
32 34
33 33
34 35
35 28
36 28
37 24
38 34
39 22
40 23
41 31
42 34
43 23
44 24
45 29
46 31
47 22
48 21
49 28
50 37
51 31
52 28
53 21
54 37
55 31
56 35
;
param bv:	 0 1 2 3 4 5 6 7 8 9 10 11 12 13 14 15 16 17 18 19 20 21 22 23 24 25 := 
		0 0 0 0 16 0 0 0 20 0 0 0 0 0 0 0 0 18 0 0 0 0 0 0 0 0 0 
		1 0 0 0 0 0 0 0 0 0 0 0 0 0 0 0 16 0 14 0 13 0 21 0 15 25 20 
		2 0 0 0 0 0 0 0 0 0 0 0 0 0 0 0 0 0 0 0 0 0 0 0 0 24 0 
		3 0 0 0 0 0 0 0 12 0 0 0 14 0 0 0 0 0 0 0 0 0 0 0 0 0 0 
		4 0 0 0 0 0 14 0 0 0 0 0 0 0 0 0 0 0 0 0 15 0 10 0 0 0 0 
		5 0 0 0 0 0 0 0 0 0 0 0 0 0 0 0 0 0 0 0 0 0 15 0 0 0 0 
		6 0 0 0 0 0 0 0 0 0 0 19 0 0 0 0 0 0 0 15 0 15 19 10 0 0 11 
		7 0 0 0 0 0 0 0 0 0 0 0 0 0 0 0 0 0 0 0 0 0 0 0 0 0 0 
		8 0 0 0 0 0 0 0 0 0 0 13 0 0 0 23 0 0 0 0 0 0 25 0 0 0 0 
		9 0 0 0 0 0 0 0 0 0 0 18 0 0 16 0 0 0 0 0 0 0 25 0 0 0 0 
		10 0 0 0 0 0 0 0 0 0 0 0 0 11 0 0 0 0 0 0 0 0 0 0 0 0 0 
		11 0 0 0 0 0 0 0 0 0 0 0 0 18 0 0 0 20 0 0 0 0 0 0 0 0 0 
		12 0 0 0 0 0 0 0 0 0 0 0 0 0 0 0 0 0 0 0 0 0 0 0 0 0 0 
		13 0 0 0 0 0 0 0 0 0 0 0 0 0 0 0 0 0 0 0 0 20 0 0 0 0 0 
		14 0 0 0 0 0 0 0 0 0 0 0 0 0 0 0 0 13 0 0 0 0 20 0 0 0 0 
		15 0 0 0 0 0 0 0 0 0 0 0 0 0 0 0 0 0 0 0 13 0 0 0 0 0 0 
		16 0 0 0 0 0 0 0 0 0 0 0 0 0 0 0 0 0 0 0 0 0 0 0 0 0 0 
		17 0 0 0 0 0 0 0 0 0 0 0 0 0 0 0 0 0 0 19 0 14 0 0 18 0 24 
		18 0 0 0 0 0 0 0 0 0 0 0 0 0 0 0 0 0 0 0 0 0 0 0 0 0 0 
		19 0 0 0 0 0 0 0 0 0 0 0 0 0 0 0 0 0 0 0 0 0 0 0 0 0 0 
		20 0 0 0 0 0 0 0 0 0 0 0 0 0 0 0 0 0 0 0 0 0 0 0 0 0 0 
		21 0 0 0 0 0 0 0 0 0 0 0 0 0 0 0 0 0 0 0 0 0 0 11 0 0 0 
		22 0 0 0 0 0 0 0 0 0 0 0 0 0 0 0 0 0 0 0 0 0 0 0 0 0 0 
		23 0 0 0 0 0 0 0 0 0 0 0 0 0 0 0 0 0 0 0 0 0 0 0 0 0 0 
		24 0 0 0 0 0 0 0 0 0 0 0 0 0 0 0 0 0 0 0 0 0 0 0 0 0 0 
		25 0 0 0 0 0 0 0 0 0 0 0 0 0 0 0 0 0 0 0 0 0 0 0 0 0 0 
;
param bs:	 0 1 2 3 4 5 6 7 8 9 10 11 12 13 14 15 16 17 18 19 20 21 22 23 24 25 26 27 28 29 30 31 32 33 34 35 36 37 38 39 40 41 42 43 44 45 46 47 48 49 50 51 52 53 54 55 56 := 
		0 0 0 0 0 0 0 0 0 0 0 0 0 0 0 0 0 0 0 0 0 0 0 0 33 0 0 0 0 0 0 37 0 0 0 0 0 0 0 25 0 0 0 0 0 40 0 0 32 0 0 0 0 0 0 0 0 0 
		1 0 0 0 39 0 0 0 30 0 0 0 0 0 0 0 0 0 0 29 0 0 0 0 0 0 0 26 0 0 0 0 0 0 0 0 0 0 0 0 0 25 0 0 0 30 0 0 29 0 0 40 0 0 0 0 0 0 
		2 0 0 0 0 0 0 40 0 0 0 0 0 0 0 0 0 0 0 0 0 0 0 0 0 0 0 0 0 0 0 0 32 0 0 0 0 0 0 21 0 0 0 0 0 0 0 36 0 0 0 0 0 0 0 0 0 0 
		3 0 39 0 0 0 0 0 0 0 0 0 0 0 0 0 0 0 0 0 30 0 0 0 0 0 0 0 0 0 0 0 0 0 0 0 0 0 0 27 0 0 0 0 0 0 0 0 0 0 0 0 0 0 0 25 0 0 
		4 0 0 0 0 0 0 0 0 0 0 34 0 0 25 0 0 0 0 0 0 0 22 0 0 0 0 0 0 0 0 0 0 0 0 0 0 0 0 0 0 0 0 0 0 37 0 25 0 0 0 0 0 0 0 0 0 0 
		5 0 0 0 0 0 0 0 0 0 0 0 0 0 0 0 0 22 0 26 0 0 0 0 0 27 0 0 0 0 0 0 0 0 0 0 0 0 0 0 0 0 0 0 0 0 0 0 0 0 0 0 33 0 0 21 0 0 
		6 0 0 40 0 0 0 0 0 0 29 0 0 0 28 0 0 0 0 0 0 23 0 0 0 0 0 0 0 0 0 0 36 28 0 0 0 0 0 0 0 0 0 0 0 0 0 0 0 0 29 0 0 0 38 0 0 0 
		7 0 30 0 0 0 0 0 0 0 0 0 0 0 0 0 0 0 0 0 0 0 0 0 0 0 0 0 0 0 0 0 0 0 0 0 0 0 0 0 0 0 0 0 0 0 0 0 31 0 0 0 0 0 0 0 0 0 
		8 0 0 0 0 0 0 0 0 0 0 30 0 27 0 0 0 34 0 0 0 0 0 0 0 0 0 0 0 0 0 0 0 0 0 0 0 0 30 0 0 0 0 0 0 21 0 33 0 0 39 0 0 0 0 0 25 0 
		9 0 0 0 0 0 0 29 0 0 0 0 0 0 39 0 0 0 0 0 0 30 0 0 28 26 35 0 0 0 0 0 0 0 26 21 0 0 0 0 0 0 0 0 0 38 0 0 0 0 24 0 0 0 0 0 0 34 
		10 0 0 0 0 34 0 0 0 30 0 0 0 0 32 35 0 29 0 30 0 0 0 0 0 0 0 0 0 0 0 0 0 0 0 38 0 0 22 0 0 0 0 0 31 35 34 0 25 0 0 0 0 0 35 0 0 0 
		11 0 0 0 0 0 0 0 0 0 0 0 0 0 0 0 0 0 28 0 0 0 23 0 0 0 0 0 0 0 0 0 0 0 0 34 0 0 0 0 0 0 0 0 0 0 0 0 0 24 0 0 0 0 0 0 24 0 
		12 0 0 0 0 0 0 0 0 27 0 0 0 0 0 0 0 0 0 33 0 0 0 0 34 0 0 0 0 0 0 0 0 0 0 0 0 0 0 0 24 0 0 0 0 0 0 0 0 0 35 0 0 0 0 0 0 0 
		13 0 0 0 0 25 0 28 0 0 39 32 0 0 0 0 0 0 0 0 0 27 0 0 0 0 0 0 0 0 0 0 0 21 0 0 21 0 0 0 0 0 0 0 30 0 0 0 0 0 0 0 0 28 0 0 0 0 
		14 0 0 0 0 0 0 0 0 0 0 35 0 0 0 0 0 25 29 0 23 0 0 0 0 0 34 0 0 0 0 0 0 0 0 0 0 0 0 0 0 0 0 0 0 0 0 0 0 0 0 0 0 0 0 0 0 0 
		15 0 0 0 0 0 0 0 0 0 0 0 0 0 0 0 0 0 0 0 0 0 0 0 0 0 0 0 0 0 0 0 0 0 0 0 0 34 0 0 0 0 0 0 0 0 0 0 0 0 0 0 0 0 28 0 0 0 
		16 0 0 0 0 0 22 0 0 34 0 29 0 0 0 25 0 0 0 0 0 0 0 0 0 0 38 0 0 0 0 0 0 0 0 36 0 0 0 0 0 0 0 0 29 0 0 0 22 29 0 0 0 0 0 27 0 0 
		17 0 0 0 0 0 0 0 0 0 0 0 28 0 0 29 0 0 0 0 0 33 0 0 0 0 0 25 0 0 0 0 0 0 0 0 0 0 0 0 0 0 0 0 0 0 0 0 0 0 0 0 0 0 0 0 0 36 
		18 0 29 0 0 0 26 0 0 0 0 30 0 33 0 0 0 0 0 0 0 0 0 0 0 0 0 0 0 0 32 0 0 0 0 0 0 0 0 0 0 0 0 0 0 0 0 0 0 0 0 0 0 0 0 28 0 0 
		19 0 0 0 30 0 0 0 0 0 0 0 0 0 0 23 0 0 0 0 0 0 0 0 0 0 0 38 0 0 0 0 0 0 0 0 0 0 0 0 0 0 0 0 24 25 20 0 0 0 0 0 0 0 0 29 0 20 
		20 0 0 0 0 0 0 23 0 0 30 0 0 0 27 0 0 0 33 0 0 0 0 0 30 0 22 0 0 28 39 0 0 0 0 0 0 0 0 0 0 0 0 0 0 0 0 0 0 0 0 0 0 0 0 0 0 0 
		21 0 0 0 0 22 0 0 0 0 0 0 23 0 0 0 0 0 0 0 0 0 0 0 0 0 0 0 0 0 0 36 0 0 0 0 0 0 0 0 0 0 0 0 0 0 0 0 0 0 0 38 0 33 0 40 0 0 
		22 0 0 0 0 0 0 0 0 0 0 0 0 0 0 0 0 0 0 0 0 0 0 0 0 0 0 0 0 0 0 0 0 0 0 38 0 0 0 0 0 0 0 0 0 0 0 0 23 0 0 0 0 0 0 0 37 0 
		23 33 0 0 0 0 0 0 0 0 28 0 0 34 0 0 0 0 0 0 0 30 0 0 0 0 36 0 0 0 20 0 0 0 0 0 0 22 0 0 0 0 0 0 33 0 0 0 0 0 24 0 0 0 0 0 0 0 
		24 0 0 0 0 0 27 0 0 0 26 0 0 0 0 0 0 0 0 0 0 0 0 0 0 0 0 0 0 0 0 0 0 0 0 0 0 0 35 0 0 0 0 0 0 0 0 0 0 0 0 21 0 0 0 0 0 0 
		25 0 0 0 0 0 0 0 0 0 35 0 0 0 0 34 0 38 0 0 0 22 0 0 36 0 0 0 21 0 0 0 0 0 0 0 0 0 0 0 23 0 0 0 0 0 0 21 0 0 0 0 0 30 0 0 0 0 
		26 0 26 0 0 0 0 0 0 0 0 0 0 0 0 0 0 0 25 0 38 0 0 0 0 0 0 0 27 0 0 0 0 0 36 0 0 0 0 0 0 20 0 0 0 0 0 0 0 0 0 31 0 0 0 0 0 0 
		27 0 0 0 0 0 0 0 0 0 0 0 0 0 0 0 0 0 0 0 0 0 0 0 0 0 21 27 0 0 0 0 0 0 0 32 0 0 0 0 0 0 0 0 0 0 0 0 0 0 0 0 0 0 0 0 0 0 
		28 0 0 0 0 0 0 0 0 0 0 0 0 0 0 0 0 0 0 0 0 28 0 0 0 0 0 0 0 0 36 0 0 0 0 0 0 20 0 0 0 0 0 0 0 0 0 0 0 0 0 0 33 0 29 0 0 36 
		29 0 0 0 0 0 0 0 0 0 0 0 0 0 0 0 0 0 0 32 0 39 0 0 20 0 0 0 0 36 0 0 28 0 0 0 0 0 27 0 0 0 25 0 0 0 0 35 26 34 0 0 0 0 0 0 0 40 
		30 37 0 0 0 0 0 0 0 0 0 0 0 0 0 0 0 0 0 0 0 0 36 0 0 0 0 0 0 0 0 0 0 0 0 0 0 35 0 0 0 0 0 0 0 0 0 0 0 0 0 0 0 0 0 0 0 0 
		31 0 0 32 0 0 0 36 0 0 0 0 0 0 0 0 0 0 0 0 0 0 0 0 0 0 0 0 0 0 28 0 0 0 0 0 0 28 0 0 0 0 0 0 0 0 0 0 0 0 0 0 0 0 0 0 0 0 
		32 0 0 0 0 0 0 28 0 0 0 0 0 0 21 0 0 0 0 0 0 0 0 0 0 0 0 0 0 0 0 0 0 0 0 0 0 0 0 0 0 34 0 0 0 0 0 26 0 0 0 0 0 0 0 20 32 0 
		33 0 0 0 0 0 0 0 0 0 26 0 0 0 0 0 0 0 0 0 0 0 0 0 0 0 0 36 0 0 0 0 0 0 0 0 0 0 0 0 0 0 0 0 0 0 35 0 0 0 0 0 27 0 0 0 0 0 
		34 0 0 0 0 0 0 0 0 0 21 38 34 0 0 0 0 36 0 0 0 0 0 38 0 0 0 0 32 0 0 0 0 0 0 0 0 0 24 0 0 0 0 0 0 0 0 0 0 0 0 0 0 0 0 0 0 0 
		35 0 0 0 0 0 0 0 0 0 0 0 0 0 21 0 0 0 0 0 0 0 0 0 0 0 0 0 0 0 0 0 0 0 0 0 0 0 0 0 0 0 0 36 0 0 0 0 0 0 0 0 26 0 0 0 0 0 
		36 0 0 0 0 0 0 0 0 0 0 0 0 0 0 0 34 0 0 0 0 0 0 0 22 0 0 0 0 20 0 35 28 0 0 0 0 0 0 0 0 0 0 31 0 0 0 0 0 0 0 0 0 0 0 0 0 0 
		37 0 0 0 0 0 0 0 0 30 0 22 0 0 0 0 0 0 0 0 0 0 0 0 0 35 0 0 0 0 27 0 0 0 0 24 0 0 0 0 0 0 0 0 0 0 0 0 0 0 0 0 0 0 0 0 0 0 
		38 25 0 21 27 0 0 0 0 0 0 0 0 0 0 0 0 0 0 0 0 0 0 0 0 0 0 0 0 0 0 0 0 0 0 0 0 0 0 0 0 0 30 0 0 25 0 0 29 0 0 0 0 0 0 0 0 0 
		39 0 0 0 0 0 0 0 0 0 0 0 0 24 0 0 0 0 0 0 0 0 0 0 0 0 23 0 0 0 0 0 0 0 0 0 0 0 0 0 0 0 0 0 32 0 0 23 0 0 0 0 0 0 0 0 0 0 
		40 0 25 0 0 0 0 0 0 0 0 0 0 0 0 0 0 0 0 0 0 0 0 0 0 0 0 20 0 0 0 0 0 34 0 0 0 0 0 0 0 0 0 0 0 33 0 24 0 24 0 0 0 0 0 0 0 0 
		41 0 0 0 0 0 0 0 0 0 0 0 0 0 0 0 0 0 0 0 0 0 0 0 0 0 0 0 0 0 25 0 0 0 0 0 0 0 0 30 0 0 0 0 0 0 23 0 39 0 0 33 0 0 0 0 0 0 
		42 0 0 0 0 0 0 0 0 0 0 0 0 0 0 0 0 0 0 0 0 0 0 0 0 0 0 0 0 0 0 0 0 0 0 0 36 31 0 0 0 0 0 0 0 0 0 0 0 0 0 39 0 0 0 0 20 0 
		43 0 0 0 0 0 0 0 0 0 0 31 0 0 30 0 0 29 0 0 24 0 0 0 33 0 0 0 0 0 0 0 0 0 0 0 0 0 0 0 32 0 0 0 0 0 0 0 0 0 0 0 0 0 0 26 0 0 
		44 40 30 0 0 37 0 0 0 21 38 35 0 0 0 0 0 0 0 0 25 0 0 0 0 0 0 0 0 0 0 0 0 0 0 0 0 0 0 25 0 33 0 0 0 0 38 0 0 0 0 0 0 0 0 0 0 28 
		45 0 0 0 0 0 0 0 0 0 0 34 0 0 0 0 0 0 0 0 20 0 0 0 0 0 0 0 0 0 0 0 0 0 35 0 0 0 0 0 0 0 23 0 0 38 0 0 38 0 0 0 0 0 0 0 0 0 
		46 0 0 36 0 25 0 0 0 33 0 0 0 0 0 0 0 0 0 0 0 0 0 0 0 0 21 0 0 0 35 0 0 26 0 0 0 0 0 0 23 24 0 0 0 0 0 0 0 0 0 0 0 29 0 0 31 0 
		47 32 29 0 0 0 0 0 31 0 0 25 0 0 0 0 0 22 0 0 0 0 0 23 0 0 0 0 0 0 26 0 0 0 0 0 0 0 0 29 0 0 39 0 0 0 38 0 0 0 0 0 0 0 0 0 24 0 
		48 0 0 0 0 0 0 0 0 0 0 0 24 0 0 0 0 29 0 0 0 0 0 0 0 0 0 0 0 0 34 0 0 0 0 0 0 0 0 0 0 24 0 0 0 0 0 0 0 0 0 0 0 0 0 22 24 21 
		49 0 0 0 0 0 0 29 0 39 24 0 0 35 0 0 0 0 0 0 0 0 0 0 24 0 0 0 0 0 0 0 0 0 0 0 0 0 0 0 0 0 0 0 0 0 0 0 0 0 0 0 0 0 0 0 0 0 
		50 0 40 0 0 0 0 0 0 0 0 0 0 0 0 0 0 0 0 0 0 0 38 0 0 21 0 31 0 0 0 0 0 0 0 0 0 0 0 0 0 0 33 39 0 0 0 0 0 0 0 0 0 0 0 0 0 0 
		51 0 0 0 0 0 33 0 0 0 0 0 0 0 0 0 0 0 0 0 0 0 0 0 0 0 0 0 0 33 0 0 0 0 27 0 26 0 0 0 0 0 0 0 0 0 0 0 0 0 0 0 0 0 0 40 27 0 
		52 0 0 0 0 0 0 0 0 0 0 0 0 0 28 0 0 0 0 0 0 0 33 0 0 0 30 0 0 0 0 0 0 0 0 0 0 0 0 0 0 0 0 0 0 0 0 29 0 0 0 0 0 0 0 0 0 0 
		53 0 0 0 0 0 0 38 0 0 0 35 0 0 0 0 28 0 0 0 0 0 0 0 0 0 0 0 0 29 0 0 0 0 0 0 0 0 0 0 0 0 0 0 0 0 0 0 0 0 0 0 0 0 0 0 0 0 
		54 0 0 0 25 0 21 0 0 0 0 0 0 0 0 0 0 27 0 28 29 0 40 0 0 0 0 0 0 0 0 0 0 20 0 0 0 0 0 0 0 0 0 0 26 0 0 0 0 22 0 0 40 0 0 0 21 0 
		55 0 0 0 0 0 0 0 0 25 0 0 24 0 0 0 0 0 0 0 0 0 0 37 0 0 0 0 0 0 0 0 0 32 0 0 0 0 0 0 0 0 0 20 0 0 0 31 24 24 0 0 27 0 0 21 0 22 
		56 0 0 0 0 0 0 0 0 0 34 0 0 0 0 0 0 0 36 0 20 0 0 0 0 0 0 0 0 36 40 0 0 0 0 0 0 0 0 0 0 0 0 0 0 28 0 0 0 21 0 0 0 0 0 0 22 0 
;
